RAW/XX/fspd/X-n162-k11.vrp_seed-2.out
11764	15.146	29.187
