RAW/XX/fspd/X-n162-k11.vrp_seed-2.sol
Route #1: 59 72 141 135 159 147 121 85 160 153 110 128 124 134 148 109 2 82 118 103 115 156
Route #2: 50 45 152 150 53 86 90 145 28 26 48 11 38 73 24 49 6 71 37 131 57 32 16 5 120 158 81 74 91 136
Route #3: 127 15 10 105 139 17 161 77 97 117 27 9 21 60 55 1 14 89 149 138 133 107 122 84 143 126 144 119 29
Route #4: 116 111 106 66 56 123 43 142 88 96 129 95 102 114 62 67 18 64 12 70 113 63 104 83 98
Route #5: 54 8 25 47 76 41 61 46 69 65 42 51 3 33 75 44 19 7 34 22 20 79 78 52
Route #6: 80 154 140 31 100 94 36 35 99 130 58 68 23 13 137 39 146 151 101 4 87 112 157 30 40 132 93 108 125 92 155
Cost 11764.000000